% seed = 0

mint = 21;
% maxt = 66;

nActs = 32;
dur = [0,1,3,1,4,3,3,2,2,3,3,1,3,1,3,1,1,2,5,1,2,1,1,3,2,1,1,2,4,2,4,0];

nSkills = 9;
sreq = [| 0,0,0,0,0,0,0,0,0,
	| 0,0,0,0,0,1,0,1,0,
	| 0,0,0,0,0,0,0,1,0,
	| 0,0,0,0,0,0,1,1,0,
	| 0,0,0,0,0,0,0,2,0,
	| 0,0,0,0,0,1,0,0,0,
	| 0,1,0,0,0,0,0,0,0,
	| 0,0,1,0,0,1,0,0,0,
	| 0,0,0,0,0,1,0,0,0,
	| 0,0,0,0,1,0,0,1,0,
	| 0,0,1,0,0,0,0,0,0,
	| 0,0,1,0,0,0,0,0,0,
	| 0,1,0,0,0,1,0,0,0,
	| 1,0,0,0,0,0,0,0,0,
	| 0,0,0,0,0,0,0,1,0,
	| 0,0,0,0,1,0,0,1,0,
	| 0,0,0,0,1,0,0,1,0,
	| 0,0,0,0,0,0,0,1,0,
	| 0,0,0,0,1,0,0,0,0,
	| 1,0,1,0,0,0,0,0,0,
	| 0,1,0,1,0,0,0,0,0,
	| 0,0,0,0,0,2,0,0,0,
	| 0,0,1,0,1,0,0,0,0,
	| 1,0,0,0,0,1,0,0,0,
	| 0,1,0,0,0,0,0,1,0,
	| 0,0,1,0,0,0,0,0,0,
	| 1,0,0,0,0,1,0,0,0,
	| 0,0,0,0,1,0,0,0,0,
	| 0,0,0,0,0,0,0,1,1,
	| 0,0,0,0,0,0,0,2,0,
	| 0,0,0,0,0,0,0,2,0,
	| 0,0,0,0,0,0,0,0,0, |];

% SumOfsreq = 48;

nResources = 7;
mastery = [| false,true,true,false,false,false,false,false,false,
	| false,false,false,false,false,false,false,true,true,
	| false,false,false,false,true,true,false,false,false,
	| true,true,true,true,true,true,true,true,true,
	| false,false,true,false,false,true,false,false,false,
	| false,false,true,false,false,false,true,true,true,
	| false,false,false,true,true,true,false,false,false, |];

nPrecs = 58;
pred = [1,1,1,2,2,3,3,3,4,4,4,5,6,6,6,7,7,7,8,9,9,9,10,11,11,11,12,13,13,14,14,15,15,16,16,16,17,17,18,18,19,19,20,20,21,22,22,23,23,24,25,25,26,27,28,29,30,31];
succ = [2,3,4,6,14,13,5,22,9,10,7,12,17,10,8,19,24,16,19,25,11,22,11,18,28,15,18,28,23,27,16,21,24,25,26,20,22,23,27,29,21,23,28,30,26,29,24,26,31,27,30,31,30,31,29,32,32,32];

nUnrels = 238;
unpred = [2,2,2,2,2,2,2,3,3,3,3,3,3,3,3,3,3,3,3,3,3,3,4,4,4,4,4,4,4,5,5,5,5,5,5,5,5,5,5,5,5,5,5,5,5,5,5,5,5,5,6,6,6,6,6,6,6,6,7,7,7,7,7,7,7,7,7,7,7,8,8,8,8,8,8,8,8,8,8,8,8,8,8,8,8,8,9,9,9,9,9,9,9,9,9,10,10,10,10,10,10,10,10,10,10,11,11,11,11,11,11,11,11,11,11,12,12,12,12,12,12,12,12,12,12,12,12,12,12,12,13,13,13,13,13,13,13,13,13,13,13,13,14,14,14,14,14,14,14,14,15,15,15,15,15,15,15,15,15,15,16,16,16,16,16,16,16,16,17,17,17,17,17,17,18,18,18,18,18,18,18,18,18,18,19,19,19,19,19,19,19,20,20,20,20,20,20,20,20,21,21,21,21,21,21,21,21,22,22,22,22,22,23,23,23,23,23,24,24,24,24,24,25,25,25,25,26,26,26,26,27,27,27,28,28,29,29,30];
unsucc = [3,4,5,7,9,12,13,4,6,7,8,9,10,11,14,15,16,17,19,20,21,25,5,6,8,12,13,14,17,6,7,8,9,10,11,13,14,15,16,17,19,20,21,22,23,24,25,26,28,30,7,9,12,13,14,16,20,25,8,9,10,11,12,13,14,15,17,18,22,9,10,11,12,13,14,15,16,17,18,20,22,24,25,27,28,29,10,12,13,14,16,17,19,20,23,12,13,14,16,17,19,20,22,23,25,12,13,14,16,17,19,20,22,23,25,13,14,15,16,17,19,20,21,22,23,24,25,26,28,30,14,15,16,17,18,19,20,21,22,24,25,27,15,17,18,19,21,22,23,24,16,17,18,19,20,22,23,25,28,29,17,18,19,21,22,23,24,27,18,19,20,21,25,28,19,20,21,22,23,24,25,26,28,30,20,22,24,25,27,28,29,21,22,23,24,25,26,27,31,22,23,24,25,27,28,29,31,23,25,26,28,30,24,25,27,28,29,25,26,28,29,30,26,27,28,29,27,28,29,31,28,29,30,30,31,30,31,31];

USEFUL_RES = [{},
	{2,3,4,5,6,7},
	{2,4,6},
	{2,4,6},
	{2,4,6},
	{3,4,5,7},
	{1,4},
	{1,3,4,5,6,7},
	{3,4,5,7},
	{2,3,4,6,7},
	{1,4,5,6},
	{1,4,5,6},
	{1,3,4,5,7},
	{4},
	{2,4,6},
	{2,3,4,6,7},
	{2,3,4,6,7},
	{2,4,6},
	{3,4,7},
	{1,4,5,6},
	{1,4,7},
	{3,4,5,7},
	{1,3,4,5,6,7},
	{3,4,5,7},
	{1,2,4,6},
	{1,4,5,6},
	{3,4,5,7},
	{3,4,7},
	{2,4,6},
	{2,4,6},
	{2,4,6},
	{}];

POTENTIAL_ACT = [{7,8,11,12,13,20,21,23,25,26},
	{2,3,4,5,10,15,16,17,18,25,29,30,31},
	{2,6,8,9,10,13,16,17,19,22,23,24,27,28},
	{2,3,4,5,6,7,8,9,10,11,12,13,14,15,16,17,18,19,20,21,22,23,24,25,26,27,28,29,30,31},
	{2,6,8,9,11,12,13,20,22,23,24,26,27},
	{2,3,4,5,8,10,11,12,15,16,17,18,20,23,25,26,29,30,31},
	{2,6,8,9,10,13,16,17,19,21,22,23,24,27,28}];
